% Logging successfully configured
%%%mzn-stat: initTime=0.132674943
%%%mzn-stat: objective=861
%%%mzn-stat: nodes=142
%%%mzn-stat: restarts=0
%%%mzn-stat: peakDepth=72
%%%mzn-stat: solveTime=0.002384677
%%%mzn-stat: variables=198
%%%mzn-stat: propagators=310
%%%mzn-stat: failures=38
%%%mzn-stat: propagations=5571
%%%mzn-stat: nogoods=38
%%%mzn-stat: numAtomicConstraintsPropagated=0
%%%mzn-stat: circuitNumber191PropagationsThatFoundConflict=13
%%%mzn-stat: circuitNumber191TotalFixedEdgesAtConflict=172
%%%mzn-stat: circuitNumber191NumberOfConflicts=13
%%%mzn-stat: circuitNumber191PropagationsThatPruned=10
%%%mzn-stat: circuitNumber191PropagationsTotal=83
%%%mzn-stat: AverageConflictSize=4.526315789473684
%%%mzn-stat: NumUnitNogoodsLearned=0
%%%mzn-stat: AverageLearnedNogoodLength=4.421052631578948
%%%mzn-stat: AverageBacktrackAmount=0
%%%mzn-stat: AverageLbd=2.973684210526316
%%%mzn-stat: 2AutonomousSearchNumBackupCalled=65
%%%mzn-stat: 2AutonomousSearchNumPredicatesRemoved=0
%%%mzn-stat: 2AutonomousSearchNumCalls=66
%%%mzn-stat: 2AutonomousSearchNumPredicatesAdded=427
%%%mzn-stat: 2AutonomousSearchAverageSizeOfHeap=6.46969696969697
%%%mzn-stat: 2AutonomousSearchNumAssignedPredicatesEncountered=427
%%%mzn-stat-end
maxleg = 861;
succ = array1d(1..20,[4, 6, 17, 11, 8, 10, 15, 13, 5, 14, 12, 18, 20, 16, 3, 19, 1, 2, 9, 7]);
% time elapsed: 22.49 s
----------
==========
% time elapsed: 22.49 s
%%%mzn-stat: initTime=0.132674943
%%%mzn-stat: objective=861
%%%mzn-stat: nodes=333
%%%mzn-stat: restarts=0
%%%mzn-stat: peakDepth=72
%%%mzn-stat: solveTime=0.015988794
%%%mzn-stat: variables=198
%%%mzn-stat: propagators=310
%%%mzn-stat: failures=213
%%%mzn-stat: propagations=30876
%%%mzn-stat: nogoods=213
%%%mzn-stat: numAtomicConstraintsPropagated=0
%%%mzn-stat: circuitNumber191PropagationsThatFoundConflict=177
%%%mzn-stat: circuitNumber191TotalFixedEdgesAtConflict=2753
%%%mzn-stat: circuitNumber191NumberOfConflicts=177
%%%mzn-stat: circuitNumber191PropagationsThatPruned=55
%%%mzn-stat: circuitNumber191PropagationsTotal=444
%%%mzn-stat: AverageConflictSize=12.305164319248826
%%%mzn-stat: NumUnitNogoodsLearned=1
%%%mzn-stat: AverageLearnedNogoodLength=6.948356807511737
%%%mzn-stat: AverageBacktrackAmount=0
%%%mzn-stat: AverageLbd=3.868544600938967
%%%mzn-stat: 2AutonomousSearchNumBackupCalled=65
%%%mzn-stat: 2AutonomousSearchNumPredicatesRemoved=0
%%%mzn-stat: 2AutonomousSearchNumCalls=66
%%%mzn-stat: 2AutonomousSearchNumPredicatesAdded=906
%%%mzn-stat: 2AutonomousSearchAverageSizeOfHeap=6.46969696969697
%%%mzn-stat: 2AutonomousSearchNumAssignedPredicatesEncountered=427
%%%mzn-stat-end
